c read Graph
c width = 169
c time = 89 ms
c width = 18
c time = 174 ms
c width = 17
c time = 234 ms
c width = 16
c time = 255 ms
c width = 15
c time = 1955 ms
c width = 14
c time = 4026 ms
c width = 14
c time = 4959 ms
s td 161 15 182
b 1 1 2 15
b 2 2 3 15 16
b 3 12 13 27 28
b 4 3 15 16 29
b 5 12 27 28 42
b 6 141 155 156 170
b 7 154 167 168 181
b 8 141 156 170 171
b 9 154 167 180 181
b 10 3 4 5 18
b 11 3 5 17 18 30 43
b 12 5 17 18 30 32 43 45
b 13 5 18 30 32 43 45 58
b 14 30 43 44 45 58
b 15 5 18 32 43 45 58 71
b 16 43 57 58 71
b 17 5 18 20 32 33 45 58 71
b 18 5 20 32 33 45 47 58 60 71
b 19 32 45 46 47 60
b 20 5 20 33 45 47 58 60 71 73
b 21 45 58 59 60 73
b 22 5 20 33 47 58 60 71 73 86
b 23 58 71 72 73 86
b 24 5 20 33 35 47 48 60 71 73 86
b 25 20 33 34 35 48
b 26 5 20 35 47 48 60 63 71 73 75 77 86 90
b 27 5 20 35 48 50 60 63 71 73 75 77 86 90
b 28 35 48 49 50 63
b 29 5 20 35 50 60 63 71 73 75 77 86 88 90
b 30 60 73 74 75 88
b 31 5 20 35 50 63 71 73 75 77 86 88 90 101
b 32 73 86 87 88 101
b 33 5 20 35 50 63 71 75 77 86 88 90 101 103
b 34 75 88 89 90 103
b 35 5 20 35 50 63 71 77 86 88 90 101 103 116
b 36 88 101 102 103 116
b 37 5 20 35 50 63 71 77 86 90 101 103 114 116 127
b 38 5 20 35 50 63 77 90 101 103 114 116 127 129
b 39 101 114 115 116 129
b 40 5 20 35 50 63 77 90 103 114 116 127 129 144 159 174
b 41 5 20 35 50 63 77 90 103 116 129 131 144 146 159 174
b 42 116 129 130 131 144
b 43 131 144 145 146 159
b 44 5 20 35 50 63 77 90 103 116 118 131 146 159 174
b 45 103 116 117 118 131
b 46 5 20 35 50 63 77 90 103 118 131 133 146 159 174
b 47 118 131 132 133 146
b 48 5 20 35 50 63 77 90 103 118 133 146 148 159 161 174
b 49 5 20 35 50 63 77 90 103 118 133 148 161 163 174 178
b 50 5 20 35 50 63 77 90 103 105 118 133 148 163 178
b 51 90 103 104 105 118
b 52 5 20 35 50 63 77 90 105 118 120 133 148 163 178
b 53 105 118 119 120 133
b 54 5 20 35 50 63 77 90 92 105 120 133 148 163 178
b 55 77 90 91 92 105
b 56 5 20 35 50 63 77 92 105 107 120 133 148 163 178
b 57 92 105 106 107 120
b 58 5 20 35 50 63 77 92 107 120 133 135 148 163 178
b 59 5 20 35 50 63 77 92 107 120 122 135 148 163 178
b 60 107 120 121 122 135
b 61 5 20 35 50 63 64 77 92 107 122 135 148 163 178
b 62 120 133 134 135 148
b 63 148 161 163 174 176 178
b 64 161 174 175 176
b 65 148 161 162 163 176
b 66 163 176 177 178
b 67 133 146 147 148 161
b 68 146 159 160 161 174
b 69 114 127 129 144 159 172 174
b 70 114 127 129 144 157 159 172
b 71 144 157 158 159 172
b 72 114 127 129 142 144 157 172
b 73 129 142 143 144 157
b 74 114 127 128 129 142
b 75 127 142 157 171 172
b 76 127 141 142 157 171
b 77 141 142 156 157 171
b 78 159 172 173 174
b 79 71 86 99 101 114 127
b 80 86 99 100 101 114
b 81 71 85 86 99
b 82 99 113 114 127
b 83 47 48 60 62 63 75 77 90
b 84 47 60 61 62 75
b 85 62 75 76 77 90
b 86 5 18 19 20 33
b 87 17 30 31 32 45
b 88 3 17 29 30 43
b 89 3 16 17 29 30
b 90 5 6 7 20
b 91 22 35 36 37 50
b 92 69 82 83 84 97
b 93 112 125 126 140
b 94 135 148 149 150 163
b 95 64 77 78 79 92
b 96 122 135 136 137 150
b 97 5 7 9 20 22 35
b 98 79 92 93 94 107
b 99 82 95 96 97 110
b 100 97 110 111 112 125
b 101 94 107 108 109 122
b 102 109 122 123 124 137
b 103 124 125 137 138 140 150 165 178
b 104 124 125 137 140 150 163 165 178
b 105 5 9 20 22 24 35 37 50
b 106 84 97 110 112 125 140
b 107 9 24 37 50 65 69 80 82 84 95 97
b 108 9 24 37 50 65 80 82 84 95 97 110
b 109 5 20 35 50 64 77 92 107 122 135 148 150 163 178
b 110 5 20 35 50 64 77 92 107 122 135 137 150 163 178
b 111 5 20 35 50 64 77 79 92 107 122 137 150 163 178
b 112 5 20 35 50 64 79 92 94 107 122 137 150 163 178
b 113 5 20 35 50 64 79 94 107 109 122 137 150 163 178
b 114 5 20 35 50 64 79 94 109 122 124 137 150 163 178
b 115 5 20 35 50 64 65 79 94 109 124 137 150 163 178
b 116 5 20 35 50 65 79 80 94 109 124 137 150 163 178
b 117 5 20 35 50 65 80 94 95 109 124 137 150 163 178
b 118 5 20 35 50 65 80 95 109 110 124 137 150 163 178
b 119 5 9 20 24 35 37 50 65 80 84 95 97 110
b 120 5 20 35 50 65 80 84 95 97 110 124 137 150 163 178
b 121 84 97 110 124 125 137 140 150 163 178
b 122 124 125 137 140 150 163 178
b 123 9 24 37 50 65 67 69 80 82 84 95
b 124 67 80 81 82 95
b 125 9 24 37 50 52 65 67 69 80 82 84
b 126 9 24 37 52 54 67 69 82 84
b 127 9 24 37 39 52 54 67 69 84
b 128 9 24 39 54 56 69 84
b 129 56 69 70 84
b 130 9 11 24 39 54 56 69
b 131 9 10 11 24
b 132 11 24 39 41 54 56 69
b 133 41 54 55 56 69
b 134 11 24 26 39 41 54 56
b 135 26 39 40 41 54
b 136 11 26 41 42 56
b 137 11 12 26 41 42
b 138 12 26 27 41 42
b 139 11 24 25 26 39
b 140 24 37 38 39 52
b 141 39 52 53 54 67
b 142 54 67 68 69 82
b 143 52 65 66 67 80
b 144 37 50 51 52 65
b 145 9 22 23 24 37
b 146 7 20 21 22 35
b 147 84 97 98 112
b 148 125 137 138 140 150 152 165 178
b 149 137 150 151 152 165
b 150 125 138 140 152 153 165 178
b 151 140 152 153 165 178 180
b 152 140 152 153 165 166 180
b 153 140 153 154 166 180
b 154 153 154 166 167 180
b 155 165 178 179 180
b 156 125 138 139 140 153
b 157 150 163 164 165 178
b 158 7 8 9 22
b 159 168 181 182
b 160 155 169 170
b 161 13 14 28
1 2
2 4
3 161
3 5
4 89
5 138
6 160
6 8
7 159
7 9
8 77
9 154
10 11
11 88
11 12
12 87
12 13
13 15
13 14
15 17
15 16
17 86
17 18
18 20
18 19
20 22
20 21
22 24
22 23
24 26
24 25
26 83
26 27
27 29
27 28
29 31
29 30
31 33
31 32
33 35
33 34
35 37
35 36
37 79
37 38
38 40
38 39
40 69
40 41
41 44
41 42
41 43
44 46
44 45
46 48
46 47
48 67
48 68
48 49
49 63
49 50
50 52
50 51
52 54
52 53
54 56
54 55
56 58
56 57
58 62
58 59
59 61
59 60
61 109
63 66
63 65
63 64
69 78
69 70
70 72
70 71
72 73
72 74
72 75
75 76
76 77
79 82
79 81
79 80
83 85
83 84
88 89
90 97
91 105
92 107
93 106
94 109
95 111
96 110
97 158
97 146
97 105
98 112
99 108
100 106
101 113
102 114
103 148
103 104
104 157
104 122
105 145
105 119
106 147
106 121
107 123
107 108
108 119
109 110
110 111
111 112
112 113
113 114
114 115
115 116
116 117
117 118
118 120
119 120
120 121
121 122
123 125
123 124
125 144
125 143
125 126
126 127
126 142
127 140
127 141
127 128
128 129
128 130
130 131
130 132
132 133
132 134
134 136
134 139
134 135
136 137
137 138
148 149
148 150
150 151
150 156
151 155
151 152
152 153
153 154
